experiments/mac_ortools/detailed-output/inst-18-1612743601.dzn

A = 9;
T = 12;
X = 24;
Y = 24;
Z = 3;
building = array2d(0..23, 0..23,
                   [0, 0, 0, 0, 0, 0, 0, 0, 0, 0, 0, 0, 0, 0, 0, 0, 0, 0, 0, 0, 0, 0, 0, 0,
                    0, 2, 2, 0, 0, 0, 0, 1, 0, 1, 1, 1, 1, 2, 0, 2, 1, 0, 2, 2, 1, 2, 2, 0,
                    0, 0, 0, 2, 1, 1, 0, 0, 2, 0, 0, 1, 2, 0, 2, 1, 2, 1, 1, 2, 0, 0, 1, 0,
                    0, 1, 0, 2, 0, 1, 2, 1, 0, 2, 1, 0, 2, 0, 0, 1, 1, 2, 1, 2, 2, 1, 2, 0,
                    0, 0, 2, 1, 0, 1, 1, 0, 0, 2, 2, 1, 2, 0, 0, 1, 0, 0, 2, 1, 1, 2, 1, 0,
                    0, 0, 2, 1, 1, 1, 1, 0, 0, 1, 0, 2, 2, 2, 1, 2, 1, 0, 1, 2, 0, 0, 0, 0,
                    0, 1, 0, 1, 0, 2, 2, 1, 0, 1, 1, 2, 1, 1, 2, 2, 2, 0, 1, 1, 1, 1, 1, 0,
                    0, 2, 1, 1, 0, 2, 0, 1, 0, 1, 0, 1, 0, 1, 0, 1, 1, 0, 1, 0, 0, 2, 0, 0,
                    0, 1, 0, 1, 1, 1, 0, 1, 2, 1, 0, 0, 0, 2, 0, 2, 1, 0, 0, 0, 0, 0, 0, 0,
                    0, 1, 1, 2, 2, 0, 2, 2, 1, 2, 1, 0, 2, 2, 2, 0, 2, 1, 1, 0, 0, 1, 1, 0,
                    0, 2, 1, 2, 2, 0, 1, 2, 1, 1, 2, 1, 0, 0, 1, 1, 0, 2, 0, 0, 2, 1, 2, 0,
                    0, 0, 0, 0, 1, 1, 0, 1, 0, 2, 1, 0, 2, 1, 1, 2, 0, 2, 2, 2, 1, 2, 2, 0,
                    0, 0, 0, 0, 1, 0, 0, 2, 0, 0, 1, 1, 1, 1, 1, 0, 2, 1, 2, 0, 0, 2, 1, 0,
                    0, 0, 1, 0, 0, 2, 1, 2, 1, 1, 1, 0, 0, 1, 2, 2, 2, 0, 2, 1, 2, 2, 0, 0,
                    0, 2, 0, 0, 2, 1, 1, 2, 2, 1, 0, 2, 2, 2, 0, 2, 0, 0, 0, 0, 1, 2, 2, 0,
                    0, 2, 0, 0, 0, 1, 2, 2, 0, 1, 0, 1, 1, 1, 2, 2, 1, 2, 1, 1, 1, 2, 1, 0,
                    0, 2, 1, 1, 2, 1, 1, 2, 1, 1, 2, 2, 2, 1, 2, 1, 1, 2, 2, 1, 1, 2, 1, 0,
                    0, 1, 1, 2, 2, 2, 2, 1, 1, 1, 2, 1, 2, 2, 2, 1, 2, 1, 2, 2, 2, 2, 1, 0,
                    0, 1, 1, 1, 1, 1, 1, 1, 2, 2, 2, 1, 1, 1, 1, 1, 1, 1, 1, 1, 1, 1, 1, 0,
                    0, 1, 1, 1, 1, 1, 1, 1, 1, 1, 1, 1, 1, 1, 1, 1, 1, 1, 1, 1, 1, 1, 1, 0,
                    0, 1, 1, 1, 1, 1, 1, 1, 1, 1, 1, 1, 1, 1, 1, 1, 1, 1, 1, 1, 1, 1, 1, 0,
                    0, 1, 1, 1, 1, 1, 1, 1, 1, 1, 1, 1, 1, 1, 1, 1, 1, 1, 1, 1, 1, 1, 1, 0,
                    0, 1, 1, 1, 1, 1, 1, 1, 1, 1, 1, 1, 1, 1, 1, 1, 1, 1, 1, 1, 1, 1, 1, 0,
                    0, 0, 0, 0, 0, 0, 0, 0, 0, 0, 0, 0, 0, 0, 0, 0, 0, 0, 0, 0, 0, 0, 0, 0]);
